452,721
616,820
417,42
699,524
802,318
654,491
823,360
1137,554
1162,651
254,545
871,32
663,463
956,681
716,454
999,88
552,7
1095,341
494,501
681,736
681,496
723,140
620,791
707,419
653,397
996,177
626,577
